;; translated from ./lustre/_6counter.vmt
;; original benchmark available at: https://es-static.fbk.eu/people/griggio/ic3ia/index.html
;; author: Alberto Griggio <griggio@fbk.eu>
(set-logic HORN)
(declare-fun state (Bool Bool Bool Bool Bool Bool Bool Bool Bool Bool) Bool)
(assert (forall ((|a__AT0| Bool) (|flby5__AT0| Bool) (|flby__AT0| Bool) (|b__AT0| Bool) (|flby2__AT0| Bool) (|c__AT0| Bool) (|flby3__AT0| Bool) (|flby4__AT0| Bool) (|flby2__AT1| Bool) (|flby__AT1| Bool) (|flby3__AT1| Bool) (|flby4__AT1| Bool) (|b__AT1| Bool) (|flby5__AT1| Bool) (|_OK___AT1| Bool) (|a__AT1| Bool) (|c__AT1| Bool) (|_OK___AT0| Bool) (|param_x__AT0| Bool) (|param_x__AT1| Bool)) (=> (let ((.def_28 (= flby5__AT0 _OK___AT0)))
(let ((.def_26 (= flby__AT0 a__AT0)))
(let ((.def_29 (and .def_26 .def_28)))
(let ((.def_24 (= flby2__AT0 b__AT0)))
(let ((.def_30 (and .def_24 .def_29)))
(let ((.def_22 (= flby3__AT0 c__AT0)))
(let ((.def_31 (and .def_22 .def_30)))
(let ((.def_14 (not flby__AT0)))
(let ((.def_12 (not flby2__AT0)))
(let ((.def_15 (and .def_12 .def_14)))
(let ((.def_10 (not flby3__AT0)))
(let ((.def_16 (and .def_10 .def_15)))
(let ((.def_18 (and .def_16 flby4__AT0)))
(let ((.def_20 (and .def_18 flby5__AT0)))
(let ((.def_32 (and .def_20 .def_31)))
.def_32))))))))))))))) (state |flby3__AT0| |flby2__AT0| |flby__AT0| |flby4__AT0| |flby5__AT0| |c__AT0| |b__AT0| |a__AT0| |_OK___AT0| |param_x__AT0|))))
(assert (forall ((|a__AT0| Bool) (|flby5__AT0| Bool) (|flby__AT0| Bool) (|b__AT0| Bool) (|flby2__AT0| Bool) (|c__AT0| Bool) (|flby3__AT0| Bool) (|flby4__AT0| Bool) (|flby2__AT1| Bool) (|flby__AT1| Bool) (|flby3__AT1| Bool) (|flby4__AT1| Bool) (|b__AT1| Bool) (|flby5__AT1| Bool) (|_OK___AT1| Bool) (|a__AT1| Bool) (|c__AT1| Bool) (|_OK___AT0| Bool) (|param_x__AT0| Bool) (|param_x__AT1| Bool)) (=> (and (state |flby3__AT0| |flby2__AT0| |flby__AT0| |flby4__AT0| |flby5__AT0| |c__AT0| |b__AT0| |a__AT0| |_OK___AT0| |param_x__AT0|) (let ((.def_62 (not c__AT0)))
(let ((.def_61 (not b__AT0)))
(let ((.def_63 (and .def_61 .def_62)))
(let ((.def_64 (and a__AT0 .def_63)))
(let ((.def_54 (not a__AT0)))
(let ((.def_60 (and b__AT0 .def_54)))
(let ((.def_65 (or .def_60 .def_64)))
(let ((.def_66 (= flby2__AT1 .def_65)))
(let ((.def_59 (= flby__AT1 .def_54)))
(let ((.def_67 (and .def_59 .def_66)))
(let ((.def_56 (and b__AT0 a__AT0)))
(let ((.def_55 (and c__AT0 .def_54)))
(let ((.def_57 (or .def_55 .def_56)))
(let ((.def_58 (= flby3__AT1 .def_57)))
(let ((.def_68 (and .def_58 .def_67)))
(let ((.def_53 (= b__AT0 flby4__AT1)))
(let ((.def_69 (and .def_53 .def_68)))
(let ((.def_49 (not b__AT1)))
(let ((.def_50 (= flby4__AT0 .def_49)))
(let ((.def_51 (= flby5__AT1 .def_50)))
(let ((.def_70 (and .def_51 .def_69)))
(let ((.def_44 (= _OK___AT1 flby5__AT1)))
(let ((.def_41 (= a__AT1 flby__AT1)))
(let ((.def_45 (and .def_41 .def_44)))
(let ((.def_38 (= b__AT1 flby2__AT1)))
(let ((.def_46 (and .def_38 .def_45)))
(let ((.def_35 (= c__AT1 flby3__AT1)))
(let ((.def_47 (and .def_35 .def_46)))
(let ((.def_28 (= flby5__AT0 _OK___AT0)))
(let ((.def_26 (= flby__AT0 a__AT0)))
(let ((.def_29 (and .def_26 .def_28)))
(let ((.def_24 (= flby2__AT0 b__AT0)))
(let ((.def_30 (and .def_24 .def_29)))
(let ((.def_22 (= flby3__AT0 c__AT0)))
(let ((.def_31 (and .def_22 .def_30)))
(let ((.def_48 (and .def_31 .def_47)))
(let ((.def_71 (and .def_48 .def_70)))
.def_71)))))))))))))))))))))))))))))))))))))) (state |flby3__AT1| |flby2__AT1| |flby__AT1| |flby4__AT1| |flby5__AT1| |c__AT1| |b__AT1| |a__AT1| |_OK___AT1| |param_x__AT1|))))
(assert (forall ((|a__AT0| Bool) (|flby5__AT0| Bool) (|flby__AT0| Bool) (|b__AT0| Bool) (|flby2__AT0| Bool) (|c__AT0| Bool) (|flby3__AT0| Bool) (|flby4__AT0| Bool) (|flby2__AT1| Bool) (|flby__AT1| Bool) (|flby3__AT1| Bool) (|flby4__AT1| Bool) (|b__AT1| Bool) (|flby5__AT1| Bool) (|_OK___AT1| Bool) (|a__AT1| Bool) (|c__AT1| Bool) (|_OK___AT0| Bool) (|param_x__AT0| Bool) (|param_x__AT1| Bool)) (=> (state |flby3__AT0| |flby2__AT0| |flby__AT0| |flby4__AT0| |flby5__AT0| |c__AT0| |b__AT0| |a__AT0| |_OK___AT0| |param_x__AT0|) _OK___AT0)))
(check-sat)
